56879
276,354,415,421,468,499,529,732,736,994,1161,1272,1324,1362,1506,1548,1615,1831,1890,1911,1915,1997,2162,2384,2413,2467,2504,2564,2749,2857,2969,3158,3175,3205,3308,3326,3344,3353,3387,3402,3431,3443,3518,3659,3698,3738,3865,3928,3978,3979,3990,4026,4197,4272,4296,4356,4523,4530,4749,4882,4939,4975,5041,5069,5079,5156,5200,5290,5407,5672,5885,5910,5977,6195,6562,6635,6715,6761,6807,6879,6883,6971,6999,7039,7068,7171,7181,7430,7514,7778,7799,7977,8116,8147,8205,8342,8557,8801,8844,8905,8912,9150,9198,9226,9463,9620,9718,9991
